72750
2 10 16 11 -1 500 500 250 250 
18 13 20 16 11 4 -1 500 100 250 250 250 150 
2
1
7 -1 40 
7 -1 40 
7 -1 40 
7 -1 40 
7 -1 40 
7 -1 40 
7 -1 40 
7 -1 40 
7 -1 40 
7 -1 40 
4 -1 40 
5 -1 40 
7 -1 40 
9 -1 40 
15 -1 40 
4 -1 40 
5 -1 40 
7 -1 40 
9 -1 40 
15 -1 40 
1 6 -1 25 15 
8 14 -1 25 15 
4 5 -1 20 20 
7 9 -1 20 20 
15 6 14 -1 20 10 10 
9 -1 40 
9 -1 40 
9 20 -1 20 20 
20 -1 40 
20 -1 40 
20 -1 40 
20 -1 40 
20 -1 40 
20 12 -1 30 10 
12 3 -1 15 25 
19 17 -1 25 15 
2
6 17 -1 25 10 
